benchmarks_CP/INST_64x64/50/inst64x64_50_85.dzn
S=8;
start=[|
52,	-1,	-1,	-1,	58,	26,	-1,	-1,	59,	-1,	11,	1,	-1,	-1,	-1,	-1,	-1,	23,	21,	-1,	-1,	-1,	-1,	-1,	-1,	-1,	5,	36,	-1,	43,	-1,	-1,	-1,	20,	-1,	9,	54,	-1,	-1,	47,	25,	14,	55,	40,	-1,	38,	-1,	-1,	27,	51,	35,	3,	13,	39,	28,	-1,	-1,	-1,	2,	-1,	37,	-1,	-1,	30|
27,	34,	-1,	-1,	-1,	19,	42,	-1,	58,	-1,	3,	48,	-1,	10,	-1,	-1,	-1,	26,	-1,	-1,	38,	13,	-1,	-1,	-1,	-1,	-1,	-1,	-1,	6,	-1,	-1,	64,	-1,	-1,	-1,	-1,	-1,	-1,	-1,	62,	-1,	18,	16,	44,	22,	43,	52,	63,	54,	2,	17,	-1,	-1,	-1,	-1,	57,	39,	46,	-1,	8,	-1,	33,	14|
47,	-1,	-1,	32,	-1,	-1,	-1,	38,	-1,	-1,	-1,	56,	13,	-1,	2,	14,	-1,	24,	4,	1,	36,	27,	-1,	42,	-1,	62,	-1,	33,	26,	28,	-1,	52,	-1,	41,	-1,	-1,	-1,	-1,	-1,	-1,	7,	35,	54,	-1,	57,	-1,	-1,	-1,	58,	-1,	10,	-1,	-1,	25,	20,	61,	22,	-1,	-1,	11,	63,	-1,	18,	59|
43,	29,	49,	57,	17,	-1,	54,	-1,	46,	22,	-1,	-1,	60,	-1,	37,	63,	-1,	55,	28,	-1,	-1,	61,	18,	-1,	-1,	59,	10,	-1,	-1,	13,	39,	40,	25,	-1,	52,	-1,	5,	-1,	-1,	44,	58,	11,	-1,	32,	-1,	-1,	2,	-1,	19,	8,	-1,	-1,	7,	-1,	-1,	-1,	-1,	16,	-1,	56,	-1,	-1,	34,	-1|
-1,	50,	-1,	48,	16,	-1,	-1,	-1,	20,	64,	38,	-1,	-1,	12,	17,	-1,	-1,	3,	14,	29,	-1,	-1,	8,	-1,	-1,	32,	57,	-1,	-1,	21,	-1,	53,	-1,	7,	-1,	46,	-1,	-1,	22,	19,	30,	5,	-1,	10,	-1,	39,	26,	37,	36,	43,	-1,	-1,	-1,	-1,	49,	-1,	-1,	-1,	-1,	-1,	27,	54,	-1,	9|
39,	-1,	1,	62,	2,	21,	30,	10,	27,	-1,	-1,	19,	-1,	-1,	49,	-1,	-1,	-1,	59,	-1,	56,	57,	22,	-1,	58,	-1,	-1,	3,	47,	9,	46,	41,	11,	-1,	-1,	4,	-1,	-1,	16,	61,	8,	6,	-1,	45,	-1,	17,	-1,	-1,	-1,	-1,	15,	14,	32,	40,	-1,	44,	-1,	25,	-1,	-1,	12,	-1,	-1,	13|
56,	25,	23,	44,	6,	-1,	28,	40,	9,	-1,	-1,	-1,	-1,	-1,	-1,	39,	-1,	11,	-1,	63,	-1,	54,	-1,	-1,	-1,	-1,	-1,	-1,	-1,	-1,	20,	-1,	-1,	32,	26,	-1,	36,	59,	58,	38,	53,	-1,	47,	61,	-1,	-1,	33,	31,	30,	-1,	41,	24,	57,	-1,	37,	46,	4,	15,	-1,	3,	-1,	-1,	-1,	60|
51,	-1,	-1,	61,	24,	55,	18,	7,	41,	54,	26,	52,	29,	-1,	32,	53,	-1,	6,	-1,	49,	15,	-1,	16,	-1,	56,	4,	8,	-1,	37,	-1,	60,	-1,	33,	27,	-1,	57,	-1,	63,	-1,	-1,	-1,	-1,	64,	46,	42,	-1,	-1,	-1,	-1,	48,	-1,	9,	22,	23,	12,	-1,	5,	-1,	50,	-1,	-1,	-1,	-1,	40|
45,	-1,	62,	-1,	63,	50,	31,	-1,	-1,	24,	-1,	18,	-1,	59,	-1,	2,	-1,	-1,	7,	-1,	57,	-1,	1,	48,	-1,	34,	46,	60,	-1,	-1,	-1,	-1,	-1,	3,	-1,	6,	39,	17,	-1,	53,	4,	37,	-1,	28,	-1,	-1,	54,	49,	25,	44,	-1,	-1,	29,	-1,	40,	12,	30,	-1,	-1,	-1,	47,	11,	-1,	-1|
-1,	48,	-1,	25,	-1,	38,	22,	12,	-1,	-1,	35,	-1,	15,	58,	63,	40,	-1,	9,	37,	3,	34,	-1,	53,	-1,	-1,	47,	45,	-1,	5,	-1,	-1,	-1,	44,	29,	-1,	-1,	31,	-1,	-1,	-1,	46,	50,	11,	-1,	-1,	24,	-1,	59,	-1,	-1,	-1,	-1,	-1,	6,	-1,	36,	-1,	-1,	-1,	60,	-1,	-1,	28,	-1|
6,	-1,	-1,	47,	23,	-1,	-1,	28,	21,	55,	25,	-1,	-1,	16,	19,	27,	-1,	-1,	-1,	-1,	-1,	60,	-1,	35,	-1,	49,	26,	-1,	63,	-1,	-1,	-1,	54,	64,	7,	-1,	9,	37,	20,	45,	31,	40,	48,	-1,	41,	-1,	-1,	-1,	-1,	1,	-1,	50,	62,	-1,	3,	-1,	-1,	36,	61,	18,	13,	39,	-1,	42|
7,	60,	-1,	-1,	1,	16,	36,	49,	31,	-1,	-1,	-1,	-1,	62,	-1,	-1,	-1,	-1,	2,	50,	43,	4,	5,	-1,	40,	19,	30,	-1,	23,	-1,	28,	-1,	-1,	58,	46,	22,	12,	-1,	63,	25,	61,	-1,	-1,	42,	-1,	-1,	13,	18,	-1,	-1,	48,	-1,	9,	-1,	-1,	56,	54,	-1,	6,	-1,	-1,	-1,	14,	51|
-1,	-1,	3,	-1,	-1,	10,	-1,	-1,	-1,	-1,	20,	-1,	17,	-1,	-1,	-1,	33,	-1,	58,	-1,	42,	8,	-1,	63,	-1,	24,	16,	48,	-1,	2,	9,	59,	1,	62,	-1,	47,	43,	-1,	-1,	-1,	-1,	45,	23,	29,	14,	-1,	-1,	-1,	-1,	5,	-1,	-1,	-1,	60,	31,	-1,	50,	49,	-1,	4,	25,	-1,	32,	38|
-1,	-1,	26,	11,	59,	-1,	-1,	43,	-1,	-1,	39,	-1,	-1,	32,	-1,	57,	-1,	29,	25,	-1,	17,	-1,	-1,	21,	-1,	53,	12,	-1,	3,	31,	-1,	-1,	41,	-1,	15,	48,	38,	28,	27,	-1,	-1,	-1,	-1,	-1,	-1,	35,	-1,	-1,	22,	30,	-1,	20,	47,	-1,	-1,	49,	-1,	-1,	16,	-1,	-1,	37,	9,	-1|
18,	57,	19,	-1,	21,	27,	34,	15,	44,	-1,	-1,	-1,	6,	46,	56,	7,	55,	45,	62,	-1,	54,	12,	-1,	40,	33,	-1,	58,	25,	4,	-1,	-1,	-1,	-1,	-1,	32,	-1,	2,	-1,	5,	-1,	-1,	22,	36,	9,	-1,	-1,	47,	39,	-1,	-1,	-1,	53,	-1,	28,	11,	38,	-1,	-1,	-1,	20,	-1,	-1,	23,	-1|
-1,	-1,	-1,	9,	-1,	5,	40,	-1,	-1,	28,	23,	-1,	-1,	-1,	48,	-1,	-1,	44,	20,	-1,	27,	-1,	-1,	13,	-1,	52,	35,	41,	-1,	-1,	14,	38,	-1,	16,	-1,	10,	-1,	4,	-1,	24,	-1,	26,	-1,	-1,	64,	-1,	-1,	-1,	-1,	17,	43,	33,	-1,	63,	-1,	-1,	15,	-1,	-1,	-1,	46,	12,	1,	3|
19,	-1,	-1,	-1,	8,	-1,	35,	44,	-1,	17,	62,	-1,	58,	-1,	21,	31,	-1,	-1,	10,	-1,	5,	-1,	59,	-1,	49,	-1,	-1,	-1,	-1,	-1,	3,	55,	28,	25,	43,	-1,	1,	-1,	7,	22,	64,	41,	-1,	-1,	4,	46,	29,	-1,	23,	14,	-1,	-1,	-1,	-1,	-1,	60,	45,	30,	-1,	48,	57,	-1,	51,	-1|
2,	11,	53,	-1,	-1,	-1,	-1,	62,	-1,	-1,	24,	61,	19,	-1,	-1,	-1,	30,	8,	-1,	25,	64,	14,	-1,	-1,	20,	-1,	29,	-1,	13,	-1,	48,	-1,	-1,	-1,	47,	-1,	58,	-1,	-1,	-1,	-1,	39,	-1,	-1,	-1,	36,	17,	-1,	28,	-1,	22,	-1,	40,	-1,	-1,	-1,	-1,	-1,	15,	-1,	31,	56,	10,	-1|
61,	-1,	-1,	-1,	12,	63,	45,	1,	14,	-1,	-1,	32,	-1,	-1,	-1,	22,	-1,	54,	-1,	37,	35,	34,	50,	9,	-1,	-1,	36,	-1,	-1,	-1,	-1,	-1,	18,	-1,	55,	21,	-1,	10,	-1,	62,	27,	56,	51,	60,	-1,	49,	-1,	58,	-1,	25,	-1,	-1,	-1,	11,	-1,	-1,	6,	3,	-1,	39,	17,	-1,	42,	-1|
-1,	-1,	34,	-1,	-1,	17,	48,	50,	-1,	27,	12,	-1,	43,	57,	36,	-1,	4,	-1,	-1,	28,	-1,	47,	-1,	56,	14,	60,	-1,	2,	51,	-1,	-1,	-1,	-1,	26,	45,	-1,	63,	-1,	-1,	-1,	-1,	-1,	19,	8,	15,	-1,	59,	-1,	-1,	9,	61,	55,	-1,	-1,	39,	-1,	-1,	1,	-1,	-1,	7,	22,	13,	64|
29,	-1,	-1,	-1,	-1,	25,	-1,	46,	15,	40,	-1,	47,	3,	-1,	-1,	48,	-1,	31,	-1,	12,	-1,	-1,	6,	-1,	37,	39,	-1,	62,	-1,	-1,	56,	-1,	-1,	-1,	35,	-1,	50,	8,	61,	30,	-1,	-1,	-1,	-1,	2,	63,	-1,	28,	-1,	13,	-1,	-1,	36,	43,	-1,	54,	-1,	-1,	20,	27,	-1,	-1,	-1,	-1|
-1,	-1,	-1,	-1,	13,	-1,	20,	4,	56,	-1,	51,	25,	-1,	60,	-1,	46,	-1,	-1,	-1,	-1,	24,	1,	-1,	33,	12,	-1,	22,	-1,	-1,	5,	-1,	-1,	3,	9,	-1,	-1,	-1,	36,	14,	-1,	-1,	54,	-1,	-1,	-1,	61,	-1,	43,	-1,	-1,	27,	47,	-1,	-1,	62,	-1,	-1,	-1,	55,	-1,	50,	34,	8,	58|
-1,	-1,	21,	-1,	28,	-1,	47,	-1,	45,	-1,	-1,	-1,	-1,	8,	11,	26,	2,	-1,	55,	42,	46,	-1,	3,	29,	18,	-1,	-1,	53,	-1,	15,	-1,	-1,	-1,	4,	17,	39,	-1,	-1,	31,	-1,	-1,	-1,	-1,	-1,	48,	13,	-1,	-1,	-1,	-1,	33,	-1,	20,	1,	24,	59,	-1,	60,	23,	-1,	-1,	-1,	54,	-1|
41,	-1,	-1,	-1,	-1,	58,	-1,	-1,	-1,	1,	-1,	-1,	-1,	-1,	-1,	33,	-1,	7,	-1,	38,	26,	62,	48,	-1,	-1,	61,	-1,	-1,	46,	17,	-1,	57,	-1,	52,	60,	59,	37,	2,	-1,	-1,	-1,	31,	-1,	-1,	18,	34,	-1,	22,	-1,	19,	3,	8,	49,	64,	-1,	15,	47,	-1,	35,	25,	43,	-1,	-1,	-1|
-1,	-1,	-1,	-1,	62,	6,	-1,	63,	-1,	12,	46,	-1,	1,	45,	-1,	-1,	14,	25,	38,	-1,	-1,	42,	-1,	4,	28,	-1,	19,	16,	53,	30,	58,	-1,	24,	-1,	-1,	-1,	17,	-1,	-1,	27,	57,	36,	22,	49,	-1,	-1,	-1,	40,	-1,	-1,	51,	-1,	-1,	-1,	-1,	43,	-1,	-1,	-1,	-1,	44,	18,	-1,	-1|
1,	15,	43,	27,	-1,	-1,	41,	-1,	29,	51,	37,	2,	48,	4,	10,	-1,	61,	-1,	-1,	-1,	-1,	-1,	-1,	-1,	-1,	-1,	31,	57,	-1,	3,	47,	-1,	16,	46,	49,	-1,	13,	-1,	34,	-1,	56,	-1,	5,	59,	-1,	9,	19,	62,	-1,	35,	44,	-1,	25,	17,	42,	-1,	-1,	14,	-1,	38,	28,	-1,	6,	-1|
59,	40,	-1,	-1,	60,	30,	-1,	22,	43,	-1,	-1,	44,	32,	-1,	-1,	-1,	35,	-1,	-1,	56,	-1,	28,	26,	10,	-1,	21,	55,	-1,	-1,	-1,	13,	-1,	42,	37,	-1,	-1,	61,	-1,	-1,	-1,	-1,	-1,	-1,	25,	-1,	-1,	38,	46,	48,	47,	14,	49,	-1,	41,	45,	19,	34,	64,	51,	31,	-1,	-1,	-1,	57|
-1,	9,	-1,	50,	-1,	49,	51,	64,	38,	-1,	-1,	39,	-1,	27,	6,	-1,	44,	22,	52,	59,	20,	-1,	-1,	58,	32,	-1,	-1,	45,	56,	29,	-1,	-1,	31,	-1,	-1,	41,	57,	47,	-1,	-1,	1,	53,	-1,	34,	-1,	15,	-1,	-1,	-1,	18,	21,	40,	61,	-1,	5,	-1,	-1,	-1,	26,	63,	-1,	36,	12,	-1|
31,	21,	46,	28,	25,	52,	-1,	35,	-1,	-1,	55,	-1,	-1,	19,	-1,	-1,	29,	39,	16,	24,	-1,	-1,	37,	6,	-1,	15,	-1,	8,	-1,	-1,	17,	54,	-1,	-1,	18,	-1,	-1,	-1,	2,	64,	45,	42,	26,	63,	47,	-1,	-1,	-1,	-1,	57,	30,	-1,	27,	20,	-1,	9,	13,	-1,	33,	-1,	-1,	-1,	5,	11|
12,	-1,	-1,	-1,	-1,	48,	-1,	23,	-1,	30,	7,	-1,	36,	-1,	53,	-1,	-1,	-1,	45,	21,	11,	-1,	-1,	57,	41,	50,	-1,	64,	60,	40,	24,	-1,	8,	-1,	-1,	51,	-1,	-1,	-1,	-1,	-1,	-1,	-1,	44,	20,	-1,	-1,	-1,	-1,	37,	-1,	-1,	6,	-1,	-1,	-1,	-1,	43,	9,	-1,	3,	-1,	-1,	-1|
-1,	-1,	56,	45,	26,	57,	-1,	-1,	-1,	-1,	28,	-1,	-1,	34,	13,	60,	43,	32,	-1,	15,	-1,	-1,	2,	-1,	-1,	-1,	-1,	-1,	14,	49,	-1,	9,	-1,	-1,	4,	-1,	53,	-1,	6,	21,	3,	51,	24,	-1,	-1,	11,	7,	-1,	31,	63,	-1,	-1,	12,	50,	-1,	-1,	48,	-1,	39,	41,	-1,	27,	35,	29|
-1,	24,	-1,	-1,	-1,	-1,	8,	61,	63,	-1,	56,	-1,	57,	-1,	-1,	35,	-1,	62,	13,	51,	-1,	-1,	-1,	-1,	27,	-1,	-1,	10,	43,	46,	2,	5,	59,	39,	-1,	25,	-1,	-1,	48,	20,	21,	58,	-1,	-1,	23,	-1,	-1,	-1,	-1,	3,	-1,	-1,	-1,	52,	15,	-1,	17,	-1,	45,	42,	-1,	60,	-1,	-1|
-1,	2,	-1,	52,	-1,	-1,	-1,	-1,	-1,	-1,	33,	50,	-1,	36,	57,	-1,	-1,	-1,	-1,	-1,	30,	-1,	-1,	-1,	-1,	51,	9,	-1,	58,	-1,	-1,	-1,	-1,	-1,	-1,	15,	11,	3,	45,	54,	37,	-1,	-1,	12,	8,	25,	-1,	4,	40,	-1,	28,	-1,	21,	-1,	7,	13,	60,	63,	44,	5,	-1,	-1,	-1,	26|
-1,	22,	-1,	38,	-1,	-1,	-1,	-1,	12,	-1,	-1,	-1,	51,	13,	7,	28,	45,	42,	57,	-1,	-1,	40,	-1,	-1,	-1,	-1,	14,	44,	8,	-1,	-1,	31,	-1,	-1,	1,	24,	-1,	32,	64,	-1,	63,	19,	61,	-1,	-1,	5,	39,	3,	-1,	-1,	20,	6,	-1,	34,	54,	-1,	-1,	-1,	36,	49,	-1,	50,	56,	27|
-1,	10,	-1,	-1,	57,	35,	17,	16,	26,	-1,	8,	-1,	-1,	14,	-1,	21,	-1,	36,	24,	55,	-1,	48,	-1,	60,	-1,	-1,	37,	-1,	-1,	61,	-1,	27,	23,	34,	-1,	-1,	59,	25,	-1,	9,	-1,	64,	15,	54,	-1,	50,	32,	-1,	43,	33,	-1,	44,	-1,	-1,	-1,	-1,	-1,	-1,	62,	-1,	-1,	-1,	-1,	-1|
63,	-1,	-1,	8,	56,	-1,	-1,	-1,	-1,	-1,	52,	4,	9,	-1,	-1,	-1,	-1,	10,	-1,	7,	-1,	-1,	-1,	-1,	13,	64,	42,	1,	-1,	60,	-1,	30,	5,	43,	62,	-1,	-1,	-1,	41,	-1,	-1,	-1,	-1,	6,	-1,	-1,	-1,	-1,	46,	31,	45,	-1,	38,	-1,	-1,	-1,	39,	19,	-1,	-1,	11,	-1,	15,	-1|
4,	-1,	-1,	-1,	-1,	64,	19,	-1,	39,	6,	-1,	11,	-1,	53,	1,	-1,	-1,	34,	22,	16,	-1,	59,	-1,	50,	-1,	-1,	25,	49,	28,	-1,	-1,	-1,	57,	-1,	44,	-1,	21,	-1,	51,	63,	-1,	60,	-1,	2,	38,	56,	41,	14,	-1,	12,	24,	62,	15,	-1,	36,	-1,	9,	17,	-1,	-1,	-1,	-1,	-1,	32|
-1,	36,	33,	18,	-1,	59,	50,	-1,	-1,	-1,	-1,	3,	-1,	47,	23,	-1,	63,	46,	-1,	-1,	44,	-1,	61,	38,	-1,	-1,	11,	5,	-1,	-1,	53,	2,	56,	40,	14,	-1,	-1,	39,	-1,	8,	26,	62,	1,	13,	-1,	-1,	-1,	-1,	9,	-1,	-1,	51,	19,	-1,	-1,	64,	41,	-1,	-1,	-1,	21,	7,	29,	25|
5,	41,	51,	-1,	34,	-1,	12,	6,	-1,	-1,	59,	22,	31,	38,	-1,	30,	-1,	-1,	-1,	13,	-1,	43,	-1,	28,	-1,	-1,	-1,	63,	39,	20,	33,	-1,	10,	-1,	58,	-1,	27,	16,	-1,	26,	-1,	7,	-1,	48,	35,	-1,	-1,	17,	-1,	32,	-1,	11,	2,	8,	-1,	50,	55,	-1,	-1,	54,	42,	3,	-1,	61|
-1,	1,	-1,	14,	-1,	28,	-1,	13,	19,	-1,	-1,	37,	42,	55,	25,	56,	58,	-1,	49,	62,	-1,	21,	11,	39,	43,	-1,	15,	-1,	-1,	-1,	38,	-1,	-1,	-1,	-1,	-1,	-1,	-1,	-1,	46,	-1,	9,	-1,	22,	-1,	-1,	23,	20,	-1,	27,	47,	-1,	63,	3,	-1,	-1,	10,	-1,	-1,	-1,	-1,	-1,	59,	35|
9,	27,	50,	10,	-1,	-1,	-1,	-1,	33,	52,	15,	-1,	53,	35,	-1,	13,	54,	-1,	-1,	43,	19,	-1,	-1,	-1,	63,	-1,	-1,	-1,	40,	16,	62,	-1,	-1,	60,	8,	-1,	-1,	48,	-1,	5,	-1,	-1,	-1,	39,	25,	-1,	44,	-1,	-1,	-1,	6,	-1,	-1,	36,	-1,	28,	-1,	-1,	38,	34,	-1,	-1,	49,	-1|
17,	-1,	22,	-1,	35,	-1,	-1,	-1,	-1,	-1,	-1,	28,	-1,	-1,	8,	-1,	16,	57,	27,	-1,	-1,	-1,	12,	-1,	-1,	14,	-1,	13,	15,	26,	-1,	58,	36,	50,	6,	-1,	-1,	-1,	18,	41,	-1,	-1,	60,	24,	-1,	31,	63,	-1,	-1,	-1,	40,	-1,	1,	-1,	-1,	-1,	-1,	44,	54,	9,	59,	-1,	3,	33|
-1,	32,	30,	19,	-1,	53,	-1,	-1,	-1,	63,	-1,	-1,	-1,	41,	-1,	5,	60,	-1,	34,	36,	10,	26,	40,	7,	-1,	27,	23,	28,	-1,	-1,	-1,	3,	2,	49,	54,	11,	-1,	-1,	-1,	-1,	-1,	47,	29,	-1,	13,	-1,	35,	-1,	-1,	-1,	-1,	21,	8,	14,	17,	-1,	43,	-1,	-1,	61,	-1,	-1,	-1,	-1|
-1,	56,	63,	36,	7,	-1,	33,	47,	16,	58,	-1,	-1,	14,	39,	-1,	9,	-1,	-1,	-1,	30,	-1,	-1,	-1,	-1,	-1,	37,	2,	19,	45,	50,	-1,	32,	-1,	-1,	21,	-1,	23,	43,	-1,	12,	-1,	-1,	34,	20,	-1,	-1,	-1,	-1,	-1,	-1,	-1,	60,	-1,	22,	-1,	-1,	31,	-1,	-1,	-1,	-1,	5,	25,	52|
-1,	-1,	-1,	-1,	54,	-1,	24,	-1,	-1,	-1,	10,	-1,	-1,	-1,	60,	-1,	-1,	64,	9,	4,	63,	-1,	44,	-1,	-1,	-1,	39,	61,	21,	33,	-1,	34,	26,	28,	-1,	-1,	-1,	-1,	46,	-1,	38,	-1,	7,	11,	-1,	14,	-1,	-1,	3,	-1,	13,	48,	50,	31,	-1,	-1,	19,	-1,	-1,	-1,	23,	-1,	41,	-1|
60,	-1,	28,	-1,	-1,	1,	-1,	26,	-1,	-1,	-1,	-1,	-1,	20,	-1,	-1,	-1,	53,	17,	58,	31,	49,	-1,	-1,	7,	11,	-1,	54,	22,	-1,	8,	-1,	-1,	61,	25,	-1,	3,	-1,	56,	-1,	36,	-1,	-1,	64,	19,	16,	37,	-1,	-1,	-1,	5,	15,	35,	51,	-1,	-1,	27,	2,	-1,	-1,	32,	55,	-1,	50|
-1,	13,	-1,	-1,	44,	-1,	6,	-1,	32,	-1,	-1,	26,	-1,	1,	-1,	3,	37,	-1,	50,	-1,	21,	25,	14,	-1,	-1,	43,	-1,	29,	24,	55,	-1,	-1,	39,	-1,	38,	35,	-1,	-1,	-1,	51,	49,	-1,	-1,	23,	-1,	-1,	-1,	-1,	54,	53,	-1,	63,	58,	7,	27,	-1,	28,	47,	12,	-1,	60,	-1,	-1,	-1|
37,	45,	55,	-1,	51,	61,	-1,	-1,	-1,	31,	19,	-1,	-1,	-1,	24,	50,	56,	-1,	39,	20,	28,	-1,	47,	-1,	-1,	-1,	-1,	-1,	-1,	25,	-1,	60,	-1,	17,	-1,	-1,	34,	-1,	40,	7,	-1,	-1,	-1,	-1,	6,	-1,	-1,	15,	52,	49,	-1,	32,	64,	29,	-1,	26,	58,	-1,	11,	14,	-1,	-1,	-1,	-1|
10,	-1,	-1,	4,	-1,	-1,	2,	-1,	-1,	-1,	-1,	-1,	38,	15,	55,	-1,	-1,	-1,	33,	14,	49,	50,	-1,	-1,	8,	-1,	56,	-1,	41,	-1,	-1,	-1,	58,	12,	3,	-1,	16,	35,	32,	-1,	44,	34,	-1,	51,	31,	-1,	40,	-1,	6,	59,	54,	25,	-1,	46,	-1,	52,	-1,	26,	-1,	13,	9,	-1,	63,	-1|
-1,	-1,	-1,	-1,	46,	-1,	5,	37,	-1,	-1,	-1,	-1,	63,	56,	27,	12,	23,	-1,	-1,	52,	-1,	11,	-1,	-1,	29,	10,	50,	-1,	31,	-1,	64,	-1,	48,	2,	42,	62,	24,	33,	47,	59,	-1,	-1,	35,	26,	-1,	-1,	-1,	6,	44,	-1,	60,	-1,	17,	-1,	9,	-1,	1,	7,	-1,	-1,	-1,	8,	-1,	15|
-1,	31,	-1,	-1,	55,	56,	43,	-1,	-1,	-1,	-1,	-1,	-1,	40,	-1,	36,	10,	-1,	-1,	8,	48,	-1,	-1,	-1,	60,	38,	32,	-1,	-1,	35,	30,	17,	63,	-1,	-1,	-1,	-1,	44,	1,	-1,	22,	49,	-1,	-1,	37,	21,	46,	7,	-1,	28,	50,	-1,	51,	-1,	-1,	27,	-1,	-1,	-1,	24,	29,	-1,	61,	12|
-1,	-1,	-1,	-1,	-1,	-1,	16,	-1,	-1,	37,	-1,	30,	-1,	44,	-1,	-1,	47,	40,	1,	-1,	29,	-1,	63,	61,	6,	-1,	27,	-1,	-1,	23,	-1,	-1,	-1,	31,	5,	60,	-1,	46,	28,	13,	54,	-1,	20,	-1,	-1,	57,	-1,	-1,	-1,	-1,	36,	12,	3,	-1,	-1,	-1,	-1,	-1,	25,	43,	-1,	10,	-1,	34|
-1,	-1,	-1,	-1,	-1,	-1,	-1,	-1,	11,	32,	-1,	-1,	26,	43,	46,	-1,	42,	13,	-1,	6,	62,	-1,	20,	-1,	-1,	-1,	-1,	-1,	-1,	44,	-1,	-1,	-1,	-1,	-1,	56,	-1,	-1,	-1,	18,	-1,	30,	10,	1,	-1,	64,	52,	23,	-1,	24,	63,	-1,	-1,	33,	8,	-1,	14,	4,	-1,	51,	-1,	-1,	60,	-1|
22,	63,	-1,	-1,	-1,	-1,	-1,	-1,	-1,	62,	-1,	9,	-1,	3,	61,	8,	17,	-1,	54,	57,	-1,	44,	58,	53,	39,	-1,	-1,	14,	-1,	-1,	40,	7,	-1,	51,	41,	23,	-1,	-1,	-1,	-1,	-1,	15,	-1,	27,	33,	29,	28,	-1,	-1,	-1,	26,	31,	37,	2,	38,	-1,	11,	-1,	5,	55,	48,	46,	-1,	16|
58,	38,	12,	-1,	-1,	3,	7,	-1,	24,	2,	57,	-1,	22,	-1,	-1,	23,	5,	-1,	-1,	19,	-1,	-1,	-1,	-1,	61,	55,	-1,	-1,	33,	-1,	-1,	-1,	-1,	-1,	39,	-1,	-1,	52,	9,	-1,	48,	43,	-1,	36,	11,	18,	56,	60,	-1,	-1,	-1,	-1,	-1,	45,	64,	32,	-1,	31,	41,	-1,	49,	-1,	-1,	44|
50,	-1,	52,	51,	-1,	44,	-1,	11,	6,	-1,	-1,	35,	18,	28,	-1,	59,	-1,	38,	-1,	-1,	-1,	-1,	-1,	-1,	-1,	-1,	62,	26,	54,	-1,	1,	-1,	-1,	-1,	27,	17,	25,	57,	-1,	-1,	24,	-1,	58,	41,	63,	-1,	-1,	8,	13,	-1,	49,	-1,	-1,	48,	-1,	-1,	-1,	33,	21,	36,	19,	32,	37,	45|
-1,	-1,	60,	58,	-1,	20,	-1,	-1,	-1,	-1,	13,	36,	-1,	48,	-1,	-1,	-1,	-1,	-1,	-1,	22,	19,	-1,	1,	-1,	-1,	38,	50,	61,	14,	-1,	-1,	12,	-1,	59,	-1,	-1,	-1,	57,	39,	-1,	-1,	-1,	-1,	32,	62,	-1,	29,	-1,	11,	53,	2,	4,	-1,	44,	33,	8,	-1,	-1,	-1,	-1,	-1,	16,	-1|
-1,	-1,	27,	46,	-1,	54,	-1,	-1,	-1,	-1,	-1,	-1,	61,	-1,	-1,	-1,	-1,	4,	-1,	-1,	55,	9,	-1,	62,	31,	23,	48,	15,	30,	7,	-1,	8,	51,	63,	-1,	-1,	44,	-1,	-1,	29,	11,	-1,	-1,	-1,	22,	-1,	-1,	-1,	17,	41,	16,	10,	24,	-1,	35,	-1,	-1,	50,	32,	-1,	56,	59,	20,	-1|
-1,	42,	16,	-1,	10,	51,	-1,	-1,	-1,	25,	-1,	15,	-1,	11,	26,	-1,	21,	63,	-1,	45,	-1,	-1,	54,	32,	9,	58,	13,	47,	-1,	-1,	22,	-1,	53,	-1,	-1,	-1,	49,	6,	38,	2,	-1,	-1,	-1,	-1,	46,	12,	57,	41,	20,	-1,	-1,	37,	43,	18,	60,	31,	-1,	-1,	-1,	19,	52,	-1,	30,	-1|
-1,	61,	32,	-1,	31,	-1,	25,	18,	-1,	-1,	47,	38,	-1,	9,	29,	16,	-1,	20,	-1,	53,	-1,	-1,	-1,	14,	-1,	17,	-1,	43,	-1,	-1,	44,	6,	45,	-1,	-1,	-1,	62,	23,	24,	34,	-1,	52,	8,	37,	5,	-1,	-1,	36,	12,	-1,	7,	-1,	55,	-1,	-1,	63,	3,	11,	-1,	-1,	58,	1,	-1,	-1|
48,	12,	-1,	21,	-1,	7,	15,	-1,	23,	-1,	-1,	-1,	-1,	-1,	-1,	-1,	46,	43,	29,	31,	40,	-1,	25,	27,	-1,	-1,	52,	-1,	-1,	-1,	41,	-1,	-1,	-1,	-1,	-1,	60,	58,	-1,	55,	-1,	63,	30,	18,	-1,	-1,	64,	-1,	-1,	-1,	-1,	59,	-1,	57,	-1,	47,	44,	6,	-1,	-1,	-1,	-1,	-1,	39|
23,	47,	-1,	-1,	50,	-1,	-1,	-1,	-1,	-1,	22,	-1,	8,	-1,	-1,	-1,	-1,	-1,	-1,	41,	39,	-1,	52,	-1,	-1,	-1,	-1,	-1,	12,	-1,	34,	-1,	-1,	56,	-1,	-1,	18,	31,	54,	-1,	-1,	27,	-1,	43,	40,	48,	-1,	2,	1,	45,	-1,	-1,	26,	-1,	6,	-1,	29,	42,	37,	15,	-1,	-1,	57,	-1|
-1,	-1,	-1,	-1,	5,	-1,	-1,	53,	35,	-1,	-1,	6,	-1,	-1,	-1,	-1,	36,	-1,	-1,	-1,	-1,	24,	-1,	-1,	57,	28,	-1,	37,	2,	27,	-1,	-1,	7,	21,	11,	-1,	-1,	-1,	42,	-1,	20,	-1,	-1,	55,	9,	59,	-1,	-1,	49,	-1,	-1,	54,	-1,	30,	-1,	-1,	-1,	40,	-1,	45,	38,	-1,	-1,	-1|
33,	-1,	38,	-1,	-1,	-1,	56,	2,	-1,	-1,	30,	10,	-1,	17,	62,	-1,	49,	-1,	64,	-1,	23,	37,	-1,	-1,	-1,	-1,	-1,	-1,	-1,	-1,	55,	24,	-1,	14,	20,	-1,	32,	-1,	43,	-1,	-1,	25,	-1,	-1,	50,	-1,	58,	-1,	15,	-1,	-1,	52,	-1,	27,	48,	29,	18,	9,	60,	-1,	-1,	-1,	-1,	-1|];
