sudoku-ls/benchmarks_LEQ/INST_64x64/50/inst64x64_50_85.txt
8
1
-1	4	-1	-1	58	26	-1	33	-1	57	-1	-1	7	61	18	6	-1	23	21	-1	41	53	46	-1	-1	-1	-1	36	16	43	15	-1	-1	-1	24	-1	54	-1	-1	47	25	-1	-1	40	-1	-1	50	-1	27	51	35	3	13	-1	28	-1	-1	48	2	-1	37	-1	-1	-1
27	-1	-1	-1	20	-1	42	5	-1	4	3	-1	-1	10	-1	-1	-1	-1	-1	9	-1	-1	35	-1	24	7	61	55	-1	-1	11	49	64	-1	-1	-1	51	-1	21	-1	62	-1	-1	-1	44	22	-1	-1	63	-1	2	-1	-1	-1	50	45	-1	39	46	29	-1	-1	33	-1
-1	-1	-1	32	3	31	9	38	8	-1	44	-1	-1	30	-1	14	-1	-1	4	1	36	-1	-1	42	-1	-1	-1	-1	26	28	-1	-1	6	41	34	50	48	-1	-1	49	7	35	-1	-1	-1	51	-1	-1	58	-1	10	29	16	-1	-1	-1	22	55	53	-1	63	-1	-1	-1
43	29	49	57	-1	-1	-1	41	46	22	-1	24	60	-1	37	-1	20	-1	28	-1	45	61	18	12	48	-1	-1	-1	-1	13	39	-1	25	-1	-1	14	5	62	-1	44	58	11	-1	32	36	4	2	27	-1	-1	-1	64	-1	53	-1	-1	26	16	-1	-1	-1	-1	34	-1
11	50	-1	48	-1	45	-1	59	20	-1	38	33	47	12	-1	62	34	3	14	-1	-1	-1	8	-1	-1	32	57	-1	-1	21	31	53	-1	7	28	46	-1	15	-1	-1	30	-1	-1	10	60	39	26	-1	-1	43	-1	-1	18	42	49	-1	61	23	1	58	-1	54	24	-1
39	-1	-1	-1	2	21	30	-1	27	43	36	-1	55	51	-1	34	50	-1	-1	-1	-1	-1	-1	-1	58	-1	54	-1	47	9	-1	-1	-1	18	23	-1	-1	-1	-1	61	8	6	28	45	24	-1	48	63	-1	26	15	-1	-1	-1	33	-1	-1	25	-1	-1	-1	-1	-1	-1
-1	-1	23	-1	6	-1	-1	40	-1	-1	-1	42	35	-1	45	-1	-1	-1	19	-1	2	-1	-1	-1	17	-1	34	-1	-1	-1	-1	-1	-1	32	-1	-1	36	59	-1	-1	-1	29	-1	-1	-1	-1	-1	31	-1	52	41	-1	-1	-1	-1	46	-1	15	-1	-1	51	-1	64	60
-1	-1	-1	61	24	-1	18	7	41	-1	-1	-1	-1	-1	-1	-1	-1	6	-1	49	-1	58	16	-1	56	4	8	-1	37	38	-1	-1	33	27	2	57	-1	-1	17	-1	59	3	-1	-1	-1	20	-1	13	-1	-1	31	9	22	-1	12	-1	5	-1	50	-1	-1	-1	21	40
45	-1	-1	55	63	-1	31	-1	13	-1	9	18	-1	-1	-1	-1	15	-1	-1	23	57	64	-1	48	-1	34	-1	60	20	-1	27	43	14	-1	51	6	-1	-1	33	53	-1	37	-1	28	-1	52	-1	-1	-1	44	58	-1	29	61	-1	-1	30	5	19	35	-1	11	-1	22
13	48	-1	-1	-1	-1	-1	-1	-1	-1	-1	8	-1	-1	63	40	-1	9	-1	3	-1	-1	53	49	10	47	45	-1	5	51	-1	42	44	29	-1	55	31	-1	23	52	-1	-1	-1	-1	-1	24	-1	-1	2	-1	-1	26	-1	-1	14	36	64	-1	-1	60	-1	-1	-1	-1
6	33	44	-1	-1	24	-1	28	21	-1	25	-1	30	16	19	27	38	-1	51	46	14	-1	-1	35	-1	49	26	-1	-1	8	29	-1	54	-1	7	34	-1	-1	-1	45	31	-1	48	17	-1	-1	-1	-1	57	-1	32	50	-1	-1	-1	4	53	-1	-1	18	13	-1	2	-1
7	-1	-1	-1	-1	16	-1	-1	-1	-1	29	53	-1	-1	52	38	41	47	-1	50	-1	4	-1	-1	-1	19	-1	-1	23	57	-1	-1	-1	58	-1	-1	12	26	-1	25	-1	44	-1	42	34	-1	13	-1	10	15	-1	-1	-1	24	55	56	54	8	6	-1	-1	-1	-1	51
30	-1	-1	-1	41	10	-1	-1	36	-1	20	-1	17	22	-1	-1	33	61	-1	-1	-1	8	-1	-1	-1	24	16	-1	-1	2	-1	59	1	-1	-1	-1	43	13	11	40	-1	-1	23	29	-1	7	-1	57	21	-1	37	-1	46	-1	-1	51	50	49	34	4	-1	-1	-1	38
-1	64	26	11	59	-1	-1	-1	-1	-1	-1	-1	4	32	34	57	24	-1	-1	18	17	36	19	21	-1	53	12	-1	-1	-1	7	61	41	-1	15	-1	38	-1	27	56	33	-1	63	58	-1	35	1	-1	-1	-1	23	20	47	-1	13	-1	-1	62	-1	40	-1	-1	9	55
18	-1	19	-1	-1	-1	34	-1	44	14	43	-1	-1	46	56	7	-1	45	62	26	54	-1	30	-1	33	13	-1	-1	4	-1	50	-1	49	59	32	-1	-1	61	5	-1	60	22	36	9	16	-1	-1	-1	42	64	52	53	41	-1	-1	-1	-1	24	48	20	-1	29	23	31
-1	51	54	-1	29	5	40	39	61	28	23	49	11	-1	-1	-1	-1	44	-1	-1	-1	6	31	13	-1	-1	35	41	-1	62	-1	38	-1	16	-1	10	-1	-1	50	-1	19	-1	-1	-1	-1	-1	-1	21	-1	-1	43	33	45	63	34	-1	-1	-1	58	-1	-1	-1	1	3
19	-1	-1	-1	8	-1	-1	44	-1	-1	62	-1	-1	2	-1	-1	11	-1	-1	-1	5	32	59	20	49	-1	6	-1	-1	-1	3	-1	-1	25	-1	-1	-1	-1	-1	-1	64	41	50	-1	-1	-1	-1	-1	23	-1	-1	38	-1	12	-1	60	45	30	63	-1	-1	33	-1	-1
-1	-1	53	-1	-1	60	27	62	-1	-1	24	61	19	6	-1	55	30	8	-1	-1	-1	14	-1	-1	20	16	-1	-1	13	1	-1	45	32	54	47	-1	58	51	-1	23	12	39	-1	-1	-1	-1	-1	-1	-1	-1	-1	5	40	-1	63	-1	46	18	-1	37	-1	-1	-1	21
-1	-1	-1	-1	12	63	-1	-1	-1	-1	-1	-1	59	-1	20	-1	-1	-1	-1	37	35	34	50	-1	-1	8	36	-1	-1	19	-1	-1	-1	13	-1	-1	41	-1	15	-1	-1	-1	51	-1	-1	-1	-1	-1	-1	-1	-1	-1	48	11	2	-1	6	-1	40	39	-1	-1	-1	24
38	54	-1	3	18	-1	48	50	-1	27	-1	29	-1	-1	36	-1	4	-1	40	-1	58	47	21	56	14	60	-1	2	51	41	-1	25	-1	-1	45	-1	-1	-1	49	-1	6	20	-1	8	-1	-1	-1	24	-1	-1	-1	-1	-1	44	39	35	62	1	-1	53	-1	-1	-1	64
-1	-1	59	26	-1	25	-1	46	15	40	34	-1	-1	49	-1	-1	53	31	-1	12	60	-1	6	18	-1	39	7	62	64	58	-1	21	19	24	-1	-1	-1	-1	-1	-1	-1	1	42	-1	-1	63	-1	28	-1	-1	17	57	36	43	-1	-1	-1	41	20	27	-1	9	11	5
57	-1	7	6	13	40	-1	4	56	-1	-1	25	44	-1	-1	46	-1	15	23	-1	-1	-1	39	33	12	26	22	31	-1	5	-1	11	-1	9	-1	64	29	-1	-1	-1	10	54	-1	-1	45	61	-1	-1	18	-1	-1	47	52	-1	62	-1	-1	-1	-1	28	50	-1	8	-1
36	5	21	-1	-1	9	47	-1	-1	-1	-1	-1	-1	-1	-1	-1	-1	-1	55	42	-1	22	3	29	-1	30	-1	53	-1	15	-1	10	27	-1	17	-1	56	-1	31	57	32	16	25	-1	48	13	62	44	50	-1	33	58	20	1	24	59	-1	60	23	12	-1	49	54	-1
-1	-1	-1	56	14	-1	32	-1	-1	1	-1	-1	28	54	-1	-1	13	7	-1	-1	26	-1	-1	36	-1	61	24	27	-1	-1	-1	-1	-1	52	60	59	37	2	-1	-1	-1	31	-1	21	-1	34	11	-1	-1	19	3	-1	49	-1	-1	15	-1	29	35	25	43	-1	44	4
32	39	-1	20	62	6	13	63	64	-1	46	-1	1	45	-1	52	14	-1	38	48	3	42	9	-1	28	33	-1	-1	53	30	-1	35	-1	-1	10	-1	-1	55	-1	27	57	-1	-1	-1	-1	-1	-1	-1	-1	2	51	34	-1	-1	23	-1	37	61	-1	50	44	-1	-1	-1
1	15	43	-1	33	36	-1	54	29	-1	-1	2	48	4	-1	-1	-1	60	-1	40	-1	-1	-1	-1	-1	-1	-1	-1	-1	-1	-1	12	16	-1	-1	45	-1	50	-1	-1	-1	-1	5	-1	39	9	-1	62	32	35	-1	-1	-1	17	-1	24	-1	14	-1	38	-1	52	6	-1
59	40	4	-1	60	30	11	-1	-1	8	54	-1	32	24	-1	58	35	50	-1	56	-1	-1	-1	-1	23	-1	-1	52	36	-1	13	-1	-1	37	-1	-1	-1	29	62	3	2	17	16	25	27	-1	-1	-1	48	47	-1	49	33	-1	-1	19	34	64	-1	-1	15	-1	-1	57
-1	-1	-1	50	-1	49	-1	64	-1	16	14	39	33	27	6	-1	44	22	52	-1	-1	17	55	-1	32	-1	4	-1	56	-1	-1	-1	31	-1	-1	-1	57	-1	-1	-1	1	-1	-1	-1	28	15	8	-1	-1	18	21	-1	61	13	-1	10	24	54	-1	63	62	-1	12	-1
-1	-1	46	28	25	52	10	35	3	-1	-1	-1	-1	19	59	49	-1	-1	16	24	-1	41	37	-1	38	-1	-1	8	-1	-1	-1	-1	-1	44	-1	-1	14	-1	-1	64	45	-1	26	-1	-1	-1	12	48	62	57	30	-1	27	-1	-1	-1	13	58	-1	-1	4	23	5	11
12	19	14	16	-1	48	38	23	22	30	-1	17	-1	5	53	-1	-1	-1	45	-1	-1	31	-1	57	41	50	59	64	60	-1	-1	62	-1	-1	63	-1	15	-1	35	28	13	32	52	-1	-1	10	-1	61	-1	-1	46	-1	-1	26	-1	58	25	43	-1	-1	3	-1	-1	-1
55	-1	-1	-1	-1	57	-1	-1	-1	-1	28	-1	-1	34	-1	-1	-1	-1	46	15	-1	33	-1	-1	22	44	-1	-1	-1	49	61	-1	-1	-1	-1	36	-1	-1	-1	-1	3	51	24	-1	-1	-1	-1	-1	31	63	-1	1	-1	50	-1	8	48	10	39	-1	40	27	-1	29
44	-1	18	-1	53	-1	8	-1	-1	47	-1	-1	-1	-1	41	-1	12	62	13	-1	7	30	36	54	27	-1	-1	10	-1	46	2	5	-1	39	22	-1	40	9	48	-1	21	-1	14	33	23	-1	-1	-1	-1	-1	64	28	11	52	15	55	-1	-1	-1	-1	16	-1	-1	49
-1	-1	48	-1	-1	32	55	29	17	35	-1	-1	34	36	57	43	-1	19	18	27	30	20	41	47	-1	51	-1	24	-1	22	16	56	-1	6	-1	-1	-1	3	-1	54	-1	59	31	-1	-1	-1	-1	4	40	42	-1	23	-1	10	-1	-1	-1	63	44	5	1	14	-1	26
-1	-1	-1	38	9	11	62	-1	-1	-1	-1	46	51	-1	7	28	45	-1	57	-1	-1	-1	23	26	-1	-1	14	-1	-1	10	-1	-1	-1	-1	-1	24	-1	-1	64	-1	-1	-1	61	-1	-1	-1	39	-1	55	-1	20	6	60	-1	54	-1	16	-1	36	-1	-1	50	-1	-1
-1	10	42	30	-1	35	-1	-1	26	-1	-1	-1	20	-1	5	21	-1	-1	24	-1	-1	-1	56	-1	-1	-1	-1	-1	6	61	12	-1	23	34	-1	29	59	-1	-1	-1	18	64	15	-1	-1	-1	-1	-1	-1	33	39	-1	53	49	1	-1	51	38	62	-1	2	40	45	28
63	44	47	8	56	-1	49	24	2	-1	-1	4	-1	-1	-1	54	-1	-1	-1	7	-1	3	-1	-1	13	-1	42	-1	55	60	26	-1	5	-1	-1	18	-1	-1	-1	-1	34	-1	27	-1	-1	28	-1	-1	46	31	-1	-1	38	35	59	-1	-1	-1	57	-1	11	-1	15	20
4	7	58	-1	-1	-1	-1	-1	39	6	27	-1	-1	-1	-1	-1	-1	34	22	16	37	59	-1	50	-1	40	-1	49	28	54	35	-1	57	55	-1	-1	-1	20	51	63	47	-1	46	-1	38	56	-1	-1	26	12	-1	-1	15	-1	36	-1	-1	17	13	-1	-1	-1	48	32
-1	36	-1	-1	27	59	-1	31	-1	-1	-1	3	16	47	-1	24	-1	46	-1	-1	-1	-1	61	-1	-1	-1	-1	-1	-1	-1	53	-1	56	40	14	-1	28	-1	60	-1	26	62	-1	13	-1	30	10	-1	-1	58	57	51	-1	37	-1	-1	41	22	-1	6	21	-1	-1	-1
-1	41	51	60	-1	23	12	6	62	-1	-1	-1	-1	38	64	30	-1	-1	53	-1	9	43	-1	28	-1	57	-1	63	-1	20	33	-1	10	19	58	49	27	16	-1	26	-1	-1	45	48	-1	40	-1	17	-1	-1	-1	11	2	-1	-1	50	55	-1	4	54	42	3	52	61
-1	1	-1	-1	61	28	26	-1	-1	-1	-1	37	42	-1	25	-1	-1	-1	49	62	6	21	-1	-1	43	36	-1	-1	-1	32	38	50	-1	-1	-1	-1	33	-1	-1	-1	51	-1	-1	22	-1	44	-1	-1	16	-1	47	41	-1	-1	-1	17	-1	-1	8	-1	-1	24	59	35
9	-1	-1	-1	-1	-1	-1	-1	-1	-1	-1	-1	-1	-1	51	-1	54	-1	42	-1	-1	29	24	22	-1	31	17	-1	-1	16	-1	18	-1	60	-1	-1	45	48	-1	5	-1	-1	-1	-1	25	26	-1	-1	59	-1	-1	-1	-1	36	56	-1	7	-1	38	34	20	4	49	-1
17	-1	22	29	35	-1	-1	-1	-1	11	2	-1	49	-1	8	-1	16	-1	27	-1	61	38	-1	46	53	14	47	-1	15	26	-1	-1	-1	-1	-1	20	-1	-1	-1	41	5	-1	60	24	62	31	63	-1	39	-1	-1	-1	1	-1	-1	37	56	-1	-1	9	59	-1	3	-1
-1	32	30	-1	38	53	39	20	37	-1	-1	45	12	-1	44	5	-1	-1	-1	-1	-1	-1	40	-1	51	-1	-1	28	-1	-1	-1	-1	2	49	-1	11	-1	24	-1	31	50	-1	29	-1	-1	-1	-1	55	33	62	-1	-1	8	-1	-1	25	-1	-1	18	-1	-1	-1	-1	1
49	56	63	36	7	46	-1	-1	-1	-1	-1	27	14	39	38	9	-1	41	-1	30	59	-1	62	-1	64	-1	-1	19	-1	-1	6	32	-1	1	21	13	23	43	29	-1	-1	-1	-1	-1	61	-1	-1	54	-1	-1	-1	-1	44	22	18	57	31	-1	17	-1	26	5	25	-1
25	-1	-1	2	-1	-1	-1	58	-1	36	10	57	-1	18	60	-1	-1	-1	-1	-1	63	-1	-1	-1	-1	-1	39	61	-1	33	49	-1	-1	28	37	-1	42	-1	-1	32	-1	-1	7	11	-1	-1	-1	-1	3	-1	-1	-1	-1	-1	-1	-1	-1	45	29	8	-1	-1	-1	6
60	-1	28	-1	-1	-1	4	-1	47	23	21	-1	46	20	30	-1	6	53	-1	-1	-1	49	13	-1	-1	-1	44	54	22	12	8	-1	9	61	-1	63	3	-1	56	-1	36	18	-1	-1	-1	-1	-1	10	-1	-1	5	-1	35	-1	-1	-1	27	-1	-1	-1	32	-1	39	50
8	-1	41	31	44	-1	6	48	-1	34	61	26	-1	1	22	-1	-1	33	-1	-1	-1	25	14	-1	-1	-1	-1	-1	24	-1	36	4	-1	-1	38	35	-1	-1	-1	51	-1	46	-1	23	52	45	9	30	-1	53	-1	-1	58	7	-1	2	-1	47	-1	16	-1	-1	-1	-1
37	-1	55	-1	-1	-1	-1	57	4	-1	19	59	54	-1	-1	-1	-1	-1	39	-1	-1	-1	47	2	30	1	-1	-1	-1	25	10	-1	-1	-1	16	44	-1	27	40	-1	-1	48	-1	3	-1	-1	-1	-1	-1	49	-1	32	64	-1	-1	-1	58	13	-1	14	35	53	-1	-1
-1	28	-1	4	30	62	2	60	48	29	-1	-1	-1	15	-1	1	22	-1	33	-1	-1	-1	-1	24	8	-1	56	11	41	-1	37	20	58	12	3	-1	-1	-1	-1	-1	-1	34	-1	-1	-1	19	-1	47	6	-1	-1	25	5	46	57	-1	23	-1	27	13	-1	-1	63	-1
-1	18	-1	49	-1	-1	5	37	34	-1	41	20	-1	56	27	12	23	-1	-1	52	51	11	45	25	-1	10	-1	-1	31	53	64	13	-1	-1	-1	62	24	-1	47	-1	-1	38	35	-1	-1	-1	61	-1	44	55	-1	43	17	16	-1	40	1	7	-1	30	-1	8	58	-1
34	31	6	23	-1	56	43	-1	-1	-1	-1	16	-1	-1	-1	-1	-1	2	-1	-1	-1	39	-1	41	-1	38	-1	-1	57	35	30	-1	63	-1	64	-1	20	-1	-1	11	22	49	62	-1	37	-1	-1	-1	-1	28	-1	18	-1	15	-1	-1	59	-1	-1	-1	-1	-1	61	12
-1	-1	-1	59	32	-1	16	-1	52	37	49	-1	39	-1	-1	51	-1	40	-1	64	29	18	63	61	6	2	-1	21	48	23	-1	15	-1	-1	5	-1	-1	46	-1	13	-1	4	20	-1	-1	57	-1	9	41	22	36	-1	3	62	58	11	35	-1	-1	43	53	-1	-1	-1
40	35	-1	-1	-1	-1	61	-1	-1	32	50	58	26	-1	-1	-1	42	13	31	6	62	-1	-1	-1	25	9	3	-1	49	44	-1	36	22	-1	-1	-1	-1	-1	37	18	16	-1	-1	-1	59	-1	-1	23	47	24	-1	7	34	-1	8	-1	14	-1	28	51	39	-1	60	2
22	-1	45	-1	19	-1	1	36	-1	-1	-1	-1	-1	-1	61	8	17	-1	-1	-1	32	-1	-1	53	39	-1	43	14	52	24	40	7	-1	-1	-1	-1	-1	49	-1	10	-1	15	12	27	33	29	28	25	-1	-1	-1	31	-1	2	38	21	11	-1	5	-1	-1	46	50	16
58	38	12	53	-1	-1	-1	-1	24	2	57	54	-1	21	47	23	5	35	30	-1	-1	-1	-1	37	-1	55	28	-1	-1	59	-1	63	50	-1	-1	-1	26	52	-1	-1	-1	-1	-1	36	-1	18	56	60	29	20	1	-1	-1	-1	-1	32	-1	31	-1	17	49	6	62	44
50	20	52	51	-1	44	-1	11	6	10	5	-1	-1	28	31	59	-1	38	56	34	-1	-1	-1	-1	-1	22	-1	26	54	-1	-1	-1	4	15	-1	-1	-1	-1	-1	-1	24	2	58	41	-1	55	-1	-1	13	-1	49	-1	30	-1	-1	-1	40	-1	-1	36	19	-1	-1	45
-1	-1	-1	58	-1	20	52	30	-1	-1	-1	36	-1	-1	43	-1	-1	-1	15	-1	-1	19	42	-1	3	25	38	50	-1	14	-1	26	12	47	-1	-1	-1	-1	-1	-1	23	-1	-1	-1	-1	-1	-1	29	64	-1	-1	2	-1	9	-1	-1	-1	34	-1	21	55	-1	16	10
-1	-1	27	46	49	54	57	-1	42	-1	18	-1	61	-1	12	37	-1	-1	6	-1	-1	9	-1	-1	31	23	48	-1	30	-1	21	-1	-1	63	-1	-1	-1	-1	-1	-1	11	13	-1	-1	22	-1	-1	34	-1	-1	-1	-1	24	58	-1	-1	36	-1	32	-1	-1	59	-1	53
64	-1	16	1	-1	51	59	55	-1	-1	40	15	-1	11	26	-1	21	63	-1	-1	8	-1	54	32	9	-1	13	47	-1	39	-1	29	53	-1	48	-1	49	-1	-1	-1	-1	-1	44	-1	46	12	57	-1	-1	-1	34	-1	43	-1	60	31	-1	35	-1	-1	-1	-1	-1	-1
35	61	32	39	31	-1	-1	18	28	59	-1	38	2	-1	29	16	26	20	-1	-1	-1	-1	-1	14	54	-1	49	-1	-1	-1	-1	6	-1	22	-1	-1	-1	23	24	34	-1	-1	8	37	5	42	60	-1	12	-1	7	19	-1	-1	51	63	-1	-1	64	46	58	-1	-1	41
48	-1	-1	-1	-1	7	-1	-1	-1	-1	-1	-1	-1	33	-1	-1	-1	43	29	-1	40	2	25	-1	-1	56	-1	20	-1	-1	-1	16	-1	-1	-1	-1	-1	58	13	-1	-1	-1	-1	18	1	54	-1	38	61	-1	-1	-1	14	57	22	47	44	6	-1	-1	-1	-1	4	-1
-1	-1	11	24	-1	-1	-1	-1	-1	-1	22	55	8	63	-1	-1	7	30	-1	-1	-1	10	-1	-1	36	46	-1	32	12	64	-1	33	35	-1	9	28	18	-1	-1	-1	14	-1	-1	-1	40	48	-1	-1	-1	-1	62	-1	26	-1	6	-1	-1	42	37	15	-1	25	-1	-1
-1	17	29	-1	5	22	14	-1	35	39	-1	-1	-1	31	-1	19	-1	58	60	44	-1	24	33	34	57	-1	-1	37	-1	-1	18	-1	-1	-1	-1	-1	-1	-1	42	15	-1	-1	-1	55	9	59	16	26	49	46	25	-1	56	30	-1	23	-1	-1	-1	45	38	61	43	48
-1	3	38	-1	-1	34	56	-1	57	-1	-1	-1	-1	17	62	-1	-1	-1	64	-1	-1	37	-1	-1	1	5	53	40	-1	42	-1	24	61	-1	20	19	-1	-1	-1	-1	35	-1	-1	-1	50	47	58	45	-1	-1	8	52	-1	27	48	-1	-1	9	60	-1	22	13	-1	-1
64 
2 29 36 28
59 40 9 16
21 13 15 46
55 52 5 51
11 12 39 1
43 11 27 46
58 30 42 14
34 29 14 42
18 10 37 57
7 59 49 1
15 55 25 34
45 42 53 28
40 8 62 52
55 40 45 46
29 26 48 48
7 11 55 21
24 30 60 26
25 62 38 4
51 55 22 17
59 49 3 55
60 54 25 12
59 31 55 13
56 50 45 61
51 60 52 1
38 64 2 17
61 36 49 58
61 24 40 50
17 33 42 12
6 26 28 30
8 28 54 39
14 30 45 54
20 31 41 48
7 47 42 64
20 3 34 54
18 15 58 55
42 33 51 16
6 18 23 13
49 13 21 44
33 5 23 36
58 35 6 54
9 13 45 63
54 41 43 29
23 31 47 26
41 47 37 35
52 47 51 34
28 64 41 28
11 4 26 31
18 31 36 10
61 59 18 23
47 19 58 58
48 5 15 12
48 49 43 37
7 41 60 20
38 20 35 44
49 15 38 45
5 52 40 16
46 60 15 2
10 14 25 31
57 35 12 60
14 12 29 46
41 50 37 16
47 64 8 56
7 20 4 16
3 27 24 54
